nb_case = 9;
nb_op = 4;

A = [_,5,_,_,_,_,_,_,_,_];
B = [_,_,_,8,_,_,_,_,3,_];
C = [_,_,_,_,3,_,5,_,_,_];
D = [_,_,_,_,_,_,_,_,_,8];

opA = ["+","*","*","*"];
opB = ["-","+","+","*"];
opC = ["+","*","+","+"];
opD = ["-","+","+","*"];

opAB = "-";
opBC = "-";
opCD = "+";
opDA = "-";

AB = 1;
BC = 4;
CD = 2;
DA = 3;